benchmarks/VRPTW/TSPTW/solution/n20w140.005.txt.solution
1 16 20 7 9 17 8 3 18 10 14 19 6 13 2 4 15 21 5 11 12 
225
